data/instances/vrp_files/train_10.vrp
NAME : 10
COMMENT : Generated instance No. 10
TYPE : CVRP
DIMENSION : 21
EDGE_WEIGHT_TYPE : EUC_2D
CAPACITY : 30
NODE_COORD_SECTION
 1 687 844
 2 697 180
 3 696 411
 4 874 515
 5 973 601
 6 223 821
 7 345 347
 8 31 548
 9 534 355
 10 894 128
 11 330 321
 12 92 481
 13 687 511
 14 156 377
 15 2 868
 16 84 597
 17 986 536
 18 924 236
 19 759 531
 20 720 62
 21 147 133
DEMAND_SECTION
1 0
2 2
3 10
4 6
5 3
6 3
7 9
8 7
9 5
10 10
11 7
12 9
13 1
14 7
15 6
16 10
17 9
18 1
19 4
20 9
21 4
DEPOT_SECTION
 1
 -1
EOF